77      4       
10      10      10      10      
0       0       0       0       0       12      2       3       5       6       7       9       10      11      12      18      19      21      
4       5       9       2       8       7       4       14      17      24      25      26      27      
1       5       5       10      9       11      13      20      23      26      28      32      33      34      38      39      42      
4       5       10      5       7       6       8       16      20      31      33      39      
5       6       7       8       3       12      20      23      25      26      27      28      29      30      32      42      43      46      
4       7       4       10      9       8       15      17      22      25      26      30      33      44      
8       5       10      10      8       10      17      28      31      32      33      34      39      42      45      46      
5       6       10      8       5       11      23      29      30      32      34      35      38      42      43      44      46      
3       6       8       9       6       9       22      23      24      28      33      35      37      42      44      
10      4       7       10      8       9       25      28      29      30      31      32      39      42      46      
6       8       9       8       7       11      23      33      34      35      37      38      40      42      43      45      46      
1       10      10      8       8       7       20      32      33      38      41      43      49      
1       8       8       8       4       7       22      27      29      35      43      46      49      
10      5       6       9       6       9       23      34      37      38      39      42      45      46      48      
10      10      9       8       6       11      27      34      35      36      42      46      48      49      50      52      54      
9       8       4       9       9       15      35      36      40      41      42      44      46      47      49      50      52      54      55      57      59      
7       7       10      2       7       10      29      35      37      41      43      47      49      52      57      76      
8       8       8       8       2       12      34      35      37      38      44      47      48      49      50      52      55      57      
6       10      10      10      3       8       30      37      40      45      47      49      52      74      
3       9       9       5       5       4       22      35      44      50      
10      9       6       6       5       11      36      40      41      47      50      51      52      53      57      59      76      
3       8       9       7       10      10      36      40      45      47      51      52      53      54      55      62      
4       10      6       6       10      11      36      41      47      49      50      51      52      53      55      57      76      
2       10      10      9       9       11      40      43      46      47      53      54      57      59      63      75      76      
5       4       7       10      8       9       37      38      41      48      50      52      57      58      74      
10      10      10      10      8       8       40      41      51      54      55      57      74      76      
6       10      7       7       7       8       37      41      51      55      57      58      74      76      
1       6       9       8       10      8       41      47      50      51      54      59      74      76      
2       10      6       10      10      5       36      40      50      51      55      
5       6       8       9       8       11      48      50      51      53      54      55      58      63      73      75      76      
4       10      10      8       2       10      49      51      52      53      54      58      69      72      74      76      
3       10      10      10      5       6       37      51      57      58      62      72      
2       9       8       5       6       10      47      51      56      59      62      63      72      74      75      76      
6       3       9       5       8       11      51      53      59      60      68      69      70      71      72      73      76      
6       8       6       6       10      10      51      53      56      60      68      69      72      73      74      75      
8       8       7       10      9       9       56      60      61      63      70      71      72      74      75      
9       7       7       6       10      9       56      59      60      61      63      69      71      73      75      
2       6       3       6       4       9       54      61      63      66      67      69      70      72      75      
10      10      6       6       9       7       51      53      57      62      68      69      75      
6       7       6       9       9       5       48      56      58      68      73      
4       10      6       8       6       8       56      60      62      63      69      71      73      75      
1       5       4       6       9       8       56      61      62      68      70      72      73      74      
3       9       9       10      10      8       51      60      61      62      69      72      73      74      
1       7       8       10      8       8       56      60      61      68      69      71      72      74      
5       3       7       10      10      6       56      57      60      69      73      76      
7       7       3       7       7       6       58      60      62      69      71      74      
1       7       10      10      9       4       58      60      65      66      
1       8       8       10      10      5       60      66      67      69      72      
4       8       8       6       7       3       56      62      64      
4       6       8       8       8       3       60      62      67      
8       7       7       7       8       4       64      65      66      67      
9       9       7       7       10      4       64      66      67      68      
2       9       4       4       5       3       61      65      66      
9       7       7       3       6       3       60      65      71      
9       8       7       7       10      3       61      65      72      
7       9       7       8       7       3       65      66      67      
1       6       10      6       4       3       66      70      71      
10      6       3       6       10      2       61      70      
2       8       8       8       4       2       64      65      
6       6       6       7       6       1       64      
1       7       3       5       10      1       64      
8       7       6       9       6       1       65      
6       10      10      8       6       1       68      
10      10      9       5       4       1       77      
7       5       9       9       9       1       77      
1       8       7       4       9       1       77      
10      6       7       10      10      1       77      
4       5       8       9       10      1       77      
2       6       7       8       8       1       77      
4       10      8       8       10      1       77      
9       7       10      10      10      1       77      
3       8       9       6       10      1       77      
3       10      7       5       9       1       77      
2       9       6       10      5       1       77      
1       6       8       2       6       1       77      
6       10      8       6       9       1       77      
0       0       0       0       0       0       
